7190513614659726528505,5,1,2,07,7,1,2,04,13,1,2,09,5,1,2,010,5,1,2,012,14,1,2,07,8,1,2,010,1,1,2,014,9,1,2,03,12,1,2,03,7,1,2,06,8,1,2,08,13,1,2,08,4,1,2,015,13,1,2,013,10,1,2,012,15,1,2,02,12,1,2,03,11,1,2,07,5,1,2,03,12,1,2,09,15,1,2,011,13,1,2,04,7,1,2,010,7,1,2,011,8,1,2,06,12,1,2,015,4,1,2,02,14,1,2,03,15,1,2,011,12,1,2,014,1,1,2,04,7,1,2,07,4,1,2,09,14,1,2,03,10,1,2,09,2,1,2,015,1,1,2,08,12,1,2,09,6,1,2,02,12,1,2,03,4,1,2,08,14,1,2,04,4,1,2,013,5,1,2,01,13,1,2,013,14,1,2,09,12,1,2,02,9,1,2,04,14,1,2,0